BAYES
196
2 2 2 2 2 2 2 2 2 2 2 2 2 2 2 2 2 2 2 2 2 2 2 2 2 2 2 2 2 2 2 2 2 2 2 2 2 2 2 2 2 2 2 2 2 2 2 2 2 2 2 2 2 2 2 2 2 2 2 2 2 2 2 2 2 2 2 2 2 2 2 2 2 2 2 2 2 2 2 2 2 2 2 2 2 2 2 2 2 2 2 2 2 2 2 2 2 2 2 2 2 2 2 2 2 2 2 2 2 2 2 2 2 2 2 2 2 2 2 2 2 2 2 2 2 2 2 2 2 2 2 2 2 2 2 2 2 2 2 2 2 2 2 2 2 2 2 2 2 2 2 2 2 2 2 2 2 2 2 2 2 2 2 2 2 2 2 2 2 2 2 2 2 2 2 2 2 2 2 2 2 2 2 2 2 2 2 2 2 2 2 2 2 2 2 2
196
3 1 14 0
3 2 15 1
3 3 16 2
3 4 17 3
3 5 18 4
3 6 19 5
3 7 20 6
3 8 21 7
3 9 22 8
3 10 23 9
3 11 24 10
3 12 25 11
3 13 26 12
2 14 13
3 15 28 14
3 16 29 15
3 17 30 16
3 18 31 17
3 19 32 18
3 20 33 19
3 21 34 20
3 22 35 21
3 23 36 22
3 24 37 23
3 25 38 24
3 26 39 25
3 27 40 26
2 28 27
3 29 42 28
3 30 43 29
3 31 44 30
3 32 45 31
3 33 46 32
3 34 47 33
3 35 48 34
3 36 49 35
3 37 50 36
3 38 51 37
3 39 52 38
3 40 53 39
3 41 54 40
2 42 41
3 43 56 42
3 44 57 43
3 45 58 44
3 46 59 45
3 47 60 46
3 48 61 47
3 49 62 48
3 50 63 49
3 51 64 50
3 52 65 51
3 53 66 52
3 54 67 53
3 55 68 54
2 56 55
3 57 70 56
3 58 71 57
3 59 72 58
3 60 73 59
3 61 74 60
3 62 75 61
3 63 76 62
3 64 77 63
3 65 78 64
3 66 79 65
3 67 80 66
3 68 81 67
3 69 82 68
2 70 69
3 71 84 70
3 72 85 71
3 73 86 72
3 74 87 73
3 75 88 74
3 76 89 75
3 77 90 76
3 78 91 77
3 79 92 78
3 80 93 79
3 81 94 80
3 82 95 81
3 83 96 82
2 84 83
3 85 98 84
3 86 99 85
3 87 100 86
3 88 101 87
3 89 102 88
3 90 103 89
3 91 104 90
3 92 105 91
3 93 106 92
3 94 107 93
3 95 108 94
3 96 109 95
3 97 110 96
2 98 97
3 99 112 98
3 100 113 99
3 101 114 100
3 102 115 101
3 103 116 102
3 104 117 103
3 105 118 104
3 106 119 105
3 107 120 106
3 108 121 107
3 109 122 108
3 110 123 109
3 111 124 110
2 112 111
3 113 126 112
3 114 127 113
3 115 128 114
3 116 129 115
3 117 130 116
3 118 131 117
3 119 132 118
3 120 133 119
3 121 134 120
3 122 135 121
3 123 136 122
3 124 137 123
3 125 138 124
2 126 125
3 127 140 126
3 128 141 127
3 129 142 128
3 130 143 129
3 131 144 130
3 132 145 131
3 133 146 132
3 134 147 133
3 135 148 134
3 136 149 135
3 137 150 136
3 138 151 137
3 139 152 138
2 140 139
3 141 154 140
3 142 155 141
3 143 156 142
3 144 157 143
3 145 158 144
3 146 159 145
3 147 160 146
3 148 161 147
3 149 162 148
3 150 163 149
3 151 164 150
3 152 165 151
3 153 166 152
2 154 153
3 155 168 154
3 156 169 155
3 157 170 156
3 158 171 157
3 159 172 158
3 160 173 159
3 161 174 160
3 162 175 161
3 163 176 162
3 164 177 163
3 165 178 164
3 166 179 165
3 167 180 166
2 168 167
3 169 182 168
3 170 183 169
3 171 184 170
3 172 185 171
3 173 186 172
3 174 187 173
3 175 188 174
3 176 189 175
3 177 190 176
3 178 191 177
3 179 192 178
3 180 193 179
3 181 194 180
2 182 181
2 196 182
2 197 183
2 198 184
2 199 185
2 200 186
2 201 187
2 202 188
2 203 189
2 204 190
2 205 191
2 206 192
2 207 193
2 208 194
1  195
8
0 1 0 1 0 1 1 0
8
0 1 0 1 1 0 1 0
8
1 0 1 0 0 1 0 1
8
1 0 1 0 1 0 0 1
8
0.7533802083653058 0.24661979163469422 0.5716421255073397 0.4283578744926602 0.9605162670395136 0.03948373296048626 0.9592001345213504 0.04079986547864959
8
0 1 1 0 1 0 1 0
8
0 1 1 0 1 0 1 0
8
0 1 0 1 0 1 1 0
8
1 0 1 0 1 0 1 0
8
0 1 1 0 0 1 0 1
8
0 1 0 1 1 0 1 0
8
0 1 0 1 0 1 1 0
8
1 0 1 0 0 1 0 1
4
1 0 0 1
8
1 0 1 0 0 1 0 1
8
1 0 0 1 0 1 1 0
8
0 1 0 1 0 1 1 0
8
1 0 0 1 0 1 0 1
8
1 0 0 1 0 1 0 1
8
0 1 1 0 0 1 1 0
8
0 1 0 1 0 1 0 1
8
0 1 0 1 0 1 0 1
8
0 1 1 0 0 1 0 1
8
0 1 0 1 0 1 0 1
8
0 1 1 0 1 0 1 0
8
1 0 1 0 0 1 1 0
8
1 0 1 0 1 0 1 0
4
1 0 0 1
8
0 1 0 1 1 0 0 1
8
1 0 1 0 0 1 0 1
8
0 1 0 1 1 0 1 0
8
1 0 1 0 1 0 0 1
8
1 0 0 1 0 1 0 1
8
0 1 1 0 1 0 1 0
8
0.9590741097265286 0.04092589027347142 0.7548516324505363 0.2451483675494637 0.4074692375062322 0.5925307624937678 0.8085773566087776 0.1914226433912224
8
1 0 0 1 1 0 1 0
8
0 1 0 1 1 0 1 0
8
1 0 1 0 0 1 1 0
8
0.5934483791632009 0.406551620836799 0.17461859267138408 0.8253814073286159 0.11389799255000035 0.8861020074499997 0.21163022563654957 0.7883697743634503
8
1 0 0 1 0 1 0 1
8
1 0 0 1 1 0 1 0
4
0 1 0 1
8
1 0 1 0 0 1 0 1
8
0 1 0 1 0 1 0 1
8
1 0 0 1 0 1 0 1
8
0 1 0 1 1 0 0 1
8
0 1 1 0 0 1 1 0
8
0 1 0 1 0 1 0 1
8
1 0 0 1 0 1 0 1
8
1 0 0 1 0 1 0 1
8
0.44199089076129183 0.5580091092387082 0.3122857929883656 0.6877142070116344 0.10325981335114076 0.8967401866488592 0.6955594670272264 0.3044405329727737
8
0 1 1 0 1 0 0 1
8
1 0 0 1 0 1 0 1
8
1 0 1 0 0 1 1 0
8
0 1 0 1 1 0 0 1
4
0 1 1 0
8
1 0 1 0 1 0 1 0
8
1 0 1 0 1 0 1 0
8
1 0 1 0 0 1 0 1
8
0 1 0 1 1 0 1 0
8
1 0 1 0 0 1 1 0
8
0 1 0 1 1 0 0 1
8
1 0 1 0 0 1 1 0
8
0 1 1 0 0 1 0 1
8
0 1 0 1 0 1 0 1
8
0.9981369255265389 0.0018630744734610919 0.3606546611723838 0.6393453388276162 0.5335587477021266 0.46644125229787337 0.43989537407356577 0.5601046259264342
8
0.47867955479652485 0.5213204452034751 0.5356252563703956 0.46437474362960446 0.846029774042982 0.15397022595701798 0.5608221361741909 0.4391778638258091
8
0 1 1 0 0 1 0 1
8
0 1 1 0 1 0 1 0
4
1 0 1 0
8
1 0 0 1 0 1 1 0
8
0.6063710021559974 0.3936289978440026 0.323844062598628 0.676155937401372 0.478943708833768 0.521056291166232 0.40034146985096564 0.5996585301490344
8
0 1 1 0 1 0 0 1
8
1 0 1 0 0 1 1 0
8
1 0 0 1 0 1 1 0
8
1 0 1 0 1 0 0 1
8
0 1 1 0 0 1 1 0
8
0 1 0 1 0 1 1 0
8
0 1 0 1 1 0 0 1
8
1 0 0 1 1 0 1 0
8
0 1 0 1 1 0 0 1
8
1 0 1 0 0 1 0 1
8
1 0 1 0 1 0 0 1
4
1 0 1 0
8
0 1 0 1 0 1 1 0
8
0.36530973433621944 0.6346902656637805 0.3719755904416825 0.6280244095583175 0.5719744014010514 0.42802559859894856 0.7819944587921216 0.2180055412078784
8
0 1 1 0 0 1 1 0
8
0 1 0 1 1 0 0 1
8
0 1 1 0 0 1 0 1
8
1 0 0 1 0 1 1 0
8
1 0 1 0 0 1 0 1
8
0 1 0 1 1 0 1 0
8
1 0 1 0 1 0 1 0
8
1 0 1 0 0 1 1 0
8
1 0 1 0 0 1 0 1
8
0 1 1 0 0 1 0 1
8
1 0 0 1 0 1 1 0
4
0 1 1 0
8
0 1 0 1 0 1 1 0
8
1 0 1 0 0 1 0 1
8
0.3798034521756793 0.6201965478243207 0.5323174034696893 0.4676825965303107 0.870471037044377 0.12952896295562308 0.24856093430915416 0.7514390656908458
8
1 0 0 1 1 0 0 1
8
0 1 1 0 1 0 1 0
8
0 1 0 1 0 1 1 0
8
0 1 1 0 1 0 1 0
8
1 0 1 0 0 1 1 0
8
0 1 1 0 0 1 0 1
8
0 1 1 0 0 1 1 0
8
1 0 0 1 0 1 0 1
8
0 1 0 1 1 0 0 1
8
0.8846521141196038 0.11534788588039624 0.42382691258038174 0.5761730874196184 0.6617105700370696 0.3382894299629304 0.3824005386262539 0.6175994613737461
4
0.38320974680707526 0.6167902531929247 0.49865678732393415 0.5013432126760659
8
1 0 0 1 0 1 1 0
8
0 1 1 0 0 1 1 0
8
1 0 1 0 0 1 0 1
8
0 1 0 1 1 0 0 1
8
1 0 0 1 1 0 0 1
8
0 1 0 1 0 1 1 0
8
0 1 1 0 0 1 0 1
8
0 1 0 1 1 0 1 0
8
1 0 1 0 1 0 0 1
8
1 0 0 1 0 1 0 1
8
1 0 0 1 0 1 0 1
8
1 0 0 1 0 1 1 0
8
1 0 0 1 0 1 1 0
4
1 0 1 0
8
0 1 1 0 0 1 0 1
8
1 0 1 0 0 1 1 0
8
1 0 1 0 0 1 1 0
8
0 1 1 0 1 0 1 0
8
1 0 1 0 1 0 0 1
8
0.9003557200630122 0.09964427993698781 0.08862173425720454 0.9113782657427955 0.3347449836727824 0.6652550163272176 0.5432970633976945 0.4567029366023055
8
1 0 0 1 0 1 0 1
8
1 0 0 1 0 1 0 1
8
1 0 0 1 1 0 0 1
8
0 1 0 1 0 1 1 0
8
1 0 1 0 0 1 0 1
8
0 1 0 1 0 1 0 1
8
1 0 0 1 1 0 1 0
4
1 0 1 0
8
0 1 1 0 1 0 1 0
8
1 0 0 1 1 0 1 0
8
1 0 0 1 1 0 1 0
8
0 1 1 0 0 1 1 0
8
1 0 1 0 0 1 1 0
8
1 0 0 1 1 0 0 1
8
1 0 0 1 1 0 1 0
8
1 0 1 0 1 0 1 0
8
1 0 1 0 0 1 0 1
8
0.2711138904110292 0.7288861095889708 0.3265679147568365 0.6734320852431634 0.07785026979522713 0.9221497302047729 0.980701760359943 0.01929823964005692
8
1 0 0 1 0 1 0 1
8
0 1 1 0 0 1 0 1
8
0.4411716321333204 0.5588283678666797 0.33736976439522637 0.6626302356047736 0.5997516723426762 0.4002483276573238 0.7427600041560947 0.2572399958439054
4
0 1 1 0
8
1 0 1 0 0 1 0 1
8
1 0 1 0 0 1 1 0
8
0 1 1 0 1 0 1 0
8
0 1 0 1 1 0 0 1
8
0 1 0 1 1 0 0 1
8
0.2695381571577269 0.7304618428422731 0.3877897374511211 0.6122102625488789 0.38504375358257303 0.614956246417427 0.1471795397154261 0.8528204602845739
8
0.15080015575282066 0.8491998442471793 0.9015066366237767 0.09849336337622323 0.2621259100205311 0.7378740899794689 0.2882004912753263 0.7117995087246737
8
1 0 0 1 1 0 0 1
8
0 1 0 1 0 1 1 0
8
1 0 1 0 1 0 1 0
8
1 0 1 0 0 1 0 1
8
1 0 0 1 1 0 0 1
8
1 0 0 1 0 1 1 0
4
0 1 1 0
8
0 1 0 1 0 1 0 1
8
0 1 1 0 1 0 1 0
8
1 0 1 0 1 0 0 1
8
0 1 0 1 1 0 1 0
8
0.23575562237984124 0.7642443776201587 0.23132255075887084 0.7686774492411292 0.4502607839587926 0.5497392160412073 0.4108940963924142 0.5891059036075857
8
1 0 1 0 0 1 0 1
8
0 1 1 0 1 0 0 1
8
0.185392339629791 0.814607660370209 0.5246951424114957 0.4753048575885042 0.8797140027608921 0.12028599723910799 0.4945383326698605 0.5054616673301395
8
1 0 0 1 0 1 1 0
8
0 1 0 1 1 0 1 0
8
0.5753973057836244 0.42460269421637575 0.9722092776814593 0.02779072231854078 0.06399463955454592 0.9360053604454541 0.5258725883449075 0.47412741165509253
8
0 1 0 1 0 1 0 1
8
1 0 1 0 0 1 1 0
4
0 1 0 1
4
0 1 1 0
4
0 1 1 0
4
1 0 1 0
4
0 1 1 0
4
0 1 0 1
4
0 1 0 1
4
0 1 1 0
4
0 1 0 1
4
0 1 1 0
4
1 0 1 0
4
0 1 1 0
4
1 0 1 0
4
0.35476420528394165 0.6452357947160583 0.3030526525121382 0.6969473474878618
2
1 0
